33
2 0 8
3 0 3
4 2 6
4 3 7
5 2 6
6 3 6
6 4 5
7 1 2
7 2 9
7 3 5
7 6 10
8 0 9
8 3 1
8 4 1
8 6 8
8 7 6
9 3 1
9 7 9
10 0 2
10 1 10
10 2 6
10 9 5
11 0 1
11 2 5
11 3 7
11 4 5
11 8 7
11 9 10
11 10 10
12 0 3
12 1 8
12 2 1
12 4 6
12 5 5
12 7 9
12 8 5
13 2 5
13 4 10
13 6 4
13 9 2
13 11 1
14 1 1
14 4 10
14 7 1
14 8 3
14 9 1
14 12 5
15 1 3
15 2 8
15 3 10
15 7 1
15 14 9
16 0 3
16 1 3
16 8 10
16 11 5
16 12 6
16 15 9
17 0 6
17 1 5
17 4 5
17 5 10
17 9 7
17 10 4
17 11 9
17 14 10
17 16 1
18 0 1
18 2 2
18 4 10
18 7 5
18 9 1
18 13 10
18 14 6
18 15 8
18 16 7
18 17 2
19 0 5
19 1 3
19 2 9
19 5 4
19 6 4
19 10 7
19 13 2
19 16 3
19 18 7
20 0 4
20 1 7
20 2 6
20 4 9
20 5 5
20 6 1
20 8 2
20 10 7
20 11 6
20 12 5
20 15 10
20 16 8
20 17 5
20 18 8
20 19 2
21 0 3
21 1 10
21 4 2
21 6 6
21 7 8
21 8 3
21 9 6
21 12 8
21 13 5
21 14 6
21 16 3
21 17 7
21 18 3
21 19 3
21 20 3
22 0 1
22 2 5
22 3 6
22 7 1
22 13 7
22 14 10
22 18 3
22 19 7
22 20 10
23 0 10
23 1 10
23 5 2
23 9 5
23 10 9
23 11 9
23 12 7
23 13 1
23 16 7
23 18 3
24 0 4
24 1 8
24 4 9
24 5 10
24 6 4
24 8 7
24 12 1
24 14 9
24 15 8
24 16 8
24 17 9
24 18 4
24 21 5
24 22 1
25 2 8
25 4 5
25 5 4
25 7 3
25 8 8
25 9 5
25 10 2
25 13 3
25 15 2
25 16 4
25 20 2
26 0 2
26 5 5
26 7 4
26 9 8
26 11 10
26 12 1
26 15 7
26 19 10
26 21 4
26 24 10
27 2 7
27 4 10
27 5 7
27 6 1
27 8 9
27 11 1
27 12 10
27 15 2
27 16 8
27 17 2
27 20 1
27 22 7
28 0 8
28 2 5
28 3 7
28 5 10
28 8 2
28 9 8
28 10 1
28 13 10
28 14 8
28 18 9
28 21 9
28 22 5
28 25 5
28 27 7
29 3 5
29 4 2
29 6 4
29 8 5
29 10 9
29 11 8
29 13 8
29 14 1
29 17 4
29 18 5
29 19 2
29 21 8
29 22 6
29 25 5
29 27 3
30 1 10
30 4 4
30 6 4
30 7 5
30 11 6
30 12 10
30 14 3
30 15 8
30 18 8
30 23 8
30 25 3
30 26 10
30 27 3
31 3 5
31 5 7
31 7 6
31 11 1
31 13 6
31 14 4
31 16 3
31 19 7
31 20 3
31 21 4
31 23 3
31 28 4
32 0 9
32 1 3
32 2 5
32 4 5
32 6 5
32 7 5
32 13 1
32 15 10
32 16 2
32 18 1
32 19 6
32 23 8
32 25 2
32 26 7
32 28 4
32 29 6
32 31 9
